NAME 
ROWS
 N  OBJ
 L  R0      
 L  R1      
 E  R2      
 E  R3      
 E  R4      
 E  R5      
 E  R6      
 E  R7      
 E  R8      
 E  R9      
 E  R10     
 E  R11     
COLUMNS
    MARKER    'MARKER'                 'INTORG'
    I0(6)     OBJ       -4
    I0(6)     R0        -85
    I0(6)     R1        34
    I0(6)     R2        11
    I0(6)     R4        5
    I0(6)     R5        19
    I0(6)     R11       1
    I1(5)     OBJ       3
    I1(5)     R0        -36
    I1(5)     R1        -157
    I1(5)     R3        6
    I1(5)     R5        11
    I1(5)     R11       1
    I2(6)     OBJ       -189
    I2(6)     R0        199
    I2(6)     R1        29
    I2(6)     R3        16
    I2(6)     R4        1
    I2(6)     R5        11
    I2(6)     R11       1
    I3(6)     OBJ       -109
    I3(6)     R0        100
    I3(6)     R1        -125
    I3(6)     R2        6
    I3(6)     R3        15
    I3(6)     R5        12
    I3(6)     R11       1
    MARKER    'MARKER'                 'INTEND'
    C4(9)     OBJ       9
    C4(9)     R0        -4
    C4(9)     R1        -7
    C4(9)     R4        3
    C4(9)     R5        15
    C4(9)     R6        11
    C4(9)     R7        13
    C4(9)     R8        11
    C4(9)     R9        17
    C4(9)     R10       -1
    C5(8)     OBJ       5
    C5(8)     R0        -4
    C5(8)     R1        8
    C5(8)     R2        18
    C5(8)     R5        2
    C5(8)     R6        18
    C5(8)     R8        9
    C5(8)     R9        7
    C5(8)     R10       1
    C6(8)     R0        1
    C6(8)     R1        -8
    C6(8)     R3        17
    C6(8)     R4        5
    C6(8)     R5        4
    C6(8)     R8        5
    C6(8)     R9        4
    C6(8)     R10       11
    C7(5)     OBJ       -9
    C7(5)     R0        -5
    C7(5)     R1        1
    C7(5)     R2        10
    C7(5)     R6        1
    C7(5)     R9        9
    C8(7)     OBJ       -5
    C8(7)     R0        -10
    C8(7)     R1        2
    C8(7)     R2        17
    C8(7)     R3        14
    C8(7)     R7        7
    C8(7)     R8        2
    C8(7)     R9        4
    C9(10)    OBJ       -5
    C9(10)    R0        -7
    C9(10)    R1        7
    C9(10)    R2        10
    C9(10)    R3        2
    C9(10)    R4        18
    C9(10)    R6        8
    C9(10)    R7        18
    C9(10)    R8        17
    C9(10)    R9        7
    C9(10)    R10       16
    C10(1)    R2        1
    C11(1)    R3        1
    C12(1)    R4        1
    C13(1)    R5        1
    C14(1)    R6        1
    C15(1)    R7        1
    C16(1)    R8        1
    C17(1)    R9        1
    C18(1)    R10       1
    C19(1)    R11       1
RHS
    RHS1      R0        173
    RHS1      R1        34.2
    RHS1      R2        52
    RHS1      R3        81
    RHS1      R4        56
    RHS1      R5        53
    RHS1      R6        70
    RHS1      R7        86
    RHS1      R8        55
    RHS1      R9        75
    RHS1      R10       68
    RHS1      R11       1
BOUNDS
 UP BND1      I0(6)     1
 UP BND1      I1(5)     1
 UP BND1      I2(6)     1
 UP BND1      I3(6)     1
ENDATA
